
Gurobi 6.5.2 (win64) logging started 07/22/16 21:11:45


Gurobi 6.5.2 (win64) logging started 07/22/16 21:11:45

Optimize a model with 381 rows, 140 columns and 860 nonzeros
Coefficient statistics:
  Matrix range    [1e+00, 1e+00]
  Objective range [2e+00, 4e+02]
  Bounds range    [1e+00, 1e+00]
  RHS range       [1e+00, 1e+00]
Found heuristic solution: objective -0
Presolve removed 328 rows and 78 columns
Presolve time: 0.00s
Presolved: 53 rows, 62 columns, 166 nonzeros
Found heuristic solution: objective 1389.0000000
Variable types: 0 continuous, 62 integer (62 binary)

Root relaxation: cutoff, 15 iterations, 0.00 seconds

    Nodes    |    Current Node    |     Objective Bounds      |     Work
 Expl Unexpl |  Obj  Depth IntInf | Incumbent    BestBd   Gap | It/Node Time

     0     0     cutoff    0      1389.00000 1389.99861  0.07%     -    0s

Explored 0 nodes (15 simplex iterations) in 0.00 seconds
Thread count was 8 (of 8 available processors)

Optimal solution found (tolerance 1.00e-04)
Best objective 1.389000000000e+03, best bound 1.389000000000e+03, gap 0.0%

Wrote requested result file 'H1\instance7\\Results7.lp'

